h 1 -2 0
h 3 4 0
h -5 3 0
h -6 -3 0
h -3 2 0
h -7 5 8 0
1 -8 0
h 5 -4 0
h 5 7 0
h 5 1 0
h 9 -1 0
1 -9 0
h -5 -10 0
h -1 -5 0
h 11 0
h 6 10 12 0
1 -12 0
h -3 13 0
1 -13 0
h 14 0
h -15 16 0
1 -16 0
h -17 0
h -18 0
